************************************************************************
file with basedata            : mm13_.bas
initial value random generator: 1383355508
************************************************************************
projects                      :  1
jobs (incl. supersource/sink ):  12
horizon                       :  69
RESOURCES
  - renewable                 :  2   R
  - nonrenewable              :  2   N
  - doubly constrained        :  0   D
************************************************************************
PROJECT INFORMATION:
pronr.  #jobs rel.date duedate tardcost  MPM-Time
    1     10      0       19        3       19
************************************************************************
PRECEDENCE RELATIONS:
jobnr.    #modes  #successors   successors
   0        1          3           1   2   3
   1        3          2           8   9
   2        3          1           4
   3        3          2           5   7
   4        3          3           5   7   8
   5        3          2           6  10
   6        3          1           9
   7        3          1          10
   8        3          1          11
   9        3          1          11
  10        3          1          11
  11        1          0        
************************************************************************
REQUESTS/DURATIONS:
jobnr. mode duration  R 1  R 2  R 3  R 4  E(W 1)  E(W 2)  E(W 3)
------------------------------------------------------------------------
  0      1     0       0    0    0    0     0       0       0
  1      1     3       0    3    5    6     9      15      18
  2      1     3       0    6    8    6    18      24      18
  3      1     1       0    2    6    7     2       6       7
  4      1     3       7    0    8    4    21      24      12
  5      1     7       8    0    9   10    56      63      70
  6      1     3       0    7    8    7    21      24      21
  7      1     4       4    0    8    6    16      32      24
  8      1     1       0    6    6    6     6       6       6
  9      1     1       0    8    5   10     8       5      10
 10      1     6       5    0    6   10    30      36      60
 11      1     0       0    0    0    0     0       0       0
************************************************************************
RESOURCEAVAILABILITIES:
  R 1  R 2  R 3
   22   47   53
************************************************************************
RESOURCE LIMITS:
jobnr.  l(R 1)  u(R 1)  l(R 2)  u(R 2)  l(R 3)  u(R 3)
------------------------------------------------------------------------
  0        0       0       0       0       0       0
  1        2       3       3       5       3       6
  2        3       6       4       8       3       6
  3        1       2       3       6       4       7
  4        4       7       4       8       2       4
  5        4       8       5       9       5      10
  6        4       7       4       8       4       7
  7        2       4       4       8       3       6
  8        3       6       3       6       3       6
  9        4       8       3       5       5      10
 10        3       5       3       6       5      10
 11        0       0       0       0       0       0
************************************************************************
SCENARIOS:
------------------------------------------------------------------------
RESOURCE k = 1
s = 1: (0, 8, 18, 2, 18, 80, 16, 16, 6, 14, 39, 0)
s = 2: (0, 10, 19, 2, 22, 51, 31, 14, 7, 8, 38, 0)
s = 3: (0, 11, 17, 3, 12, 54, 19, 17, 6, 10, 23, 0)
s = 4: (0, 11, 18, 4, 17, 46, 22, 10, 6, 8, 39, 0)
s = 5: (0, 12, 14, 3, 31, 69, 22, 11, 10, 7, 29, 0)
s = 6: (0, 14, 19, 3, 18, 33, 20, 18, 4, 8, 30, 0)
s = 7: (0, 9, 18, 2, 28, 39, 30, 14, 8, 12, 31, 0)
s = 8: (0, 6, 26, 2, 20, 57, 17, 16, 9, 11, 31, 0)
s = 9: (0, 10, 22, 3, 22, 51, 16, 16, 6, 6, 17, 0)
s = 10: (0, 12, 25, 2, 24, 40, 13, 10, 6, 8, 37, 0)
s = 11: (0, 11, 17, 3, 21, 48, 18, 11, 6, 9, 19, 0)
s = 12: (0, 9, 17, 3, 29, 67, 31, 21, 5, 6, 23, 0)
s = 13: (0, 12, 13, 3, 19, 76, 35, 12, 6, 15, 33, 0)
s = 14: (0, 7, 26, 2, 32, 77, 15, 11, 8, 10, 44, 0)
s = 15: (0, 9, 23, 2, 17, 56, 20, 17, 7, 7, 36, 0)
s = 16: (0, 6, 17, 2, 27, 73, 14, 14, 11, 8, 35, 0)
s = 17: (0, 6, 22, 3, 18, 62, 22, 15, 6, 8, 36, 0)
s = 18: (0, 9, 18, 2, 22, 88, 17, 10, 4, 8, 28, 0)
s = 19: (0, 10, 16, 3, 28, 59, 19, 11, 9, 9, 48, 0)
s = 20: (0, 9, 15, 2, 26, 34, 20, 12, 6, 9, 37, 0)
s = 21: (0, 10, 26, 3, 28, 56, 20, 18, 5, 7, 37, 0)
s = 22: (0, 8, 12, 2, 19, 49, 26, 23, 6, 7, 33, 0)
s = 23: (0, 12, 17, 2, 22, 46, 23, 15, 5, 6, 40, 0)
s = 24: (0, 7, 16, 3, 15, 54, 27, 17, 5, 12, 40, 0)
s = 25: (0, 8, 27, 3, 23, 42, 32, 23, 6, 8, 28, 0)
s = 26: (0, 8, 17, 3, 33, 33, 13, 17, 5, 6, 42, 0)
s = 27: (0, 12, 15, 2, 22, 53, 29, 21, 7, 7, 33, 0)
s = 28: (0, 7, 17, 2, 26, 50, 19, 9, 7, 8, 24, 0)
s = 29: (0, 13, 15, 3, 23, 93, 15, 20, 8, 9, 34, 0)
s = 30: (0, 9, 20, 2, 34, 55, 25, 11, 10, 5, 27, 0)
s = 31: (0, 7, 18, 2, 16, 46, 20, 19, 5, 6, 24, 0)
s = 32: (0, 14, 17, 2, 17, 62, 19, 20, 7, 11, 20, 0)
s = 33: (0, 7, 20, 3, 21, 56, 24, 21, 4, 6, 20, 0)
s = 34: (0, 7, 26, 2, 22, 50, 30, 26, 10, 6, 28, 0)
s = 35: (0, 11, 19, 3, 33, 37, 25, 26, 6, 12, 24, 0)
s = 36: (0, 8, 16, 3, 24, 68, 19, 12, 7, 8, 45, 0)
s = 37: (0, 10, 23, 2, 28, 36, 13, 17, 6, 6, 32, 0)
s = 38: (0, 9, 21, 2, 20, 53, 24, 26, 5, 10, 28, 0)
s = 39: (0, 8, 17, 3, 40, 52, 16, 14, 5, 7, 25, 0)
s = 40: (0, 9, 20, 3, 22, 70, 29, 14, 4, 7, 37, 0)
s = 41: (0, 6, 12, 2, 14, 42, 24, 21, 5, 11, 34, 0)
s = 42: (0, 9, 16, 2, 21, 71, 22, 10, 7, 8, 32, 0)
s = 43: (0, 8, 11, 2, 18, 35, 28, 21, 7, 5, 32, 0)
s = 44: (0, 10, 25, 3, 12, 60, 20, 12, 6, 8, 34, 0)
s = 45: (0, 10, 22, 2, 38, 66, 18, 17, 7, 10, 29, 0)
s = 46: (0, 13, 25, 3, 12, 36, 18, 17, 10, 11, 26, 0)
s = 47: (0, 10, 26, 2, 17, 86, 14, 13, 5, 9, 33, 0)
s = 48: (0, 9, 21, 3, 19, 88, 28, 24, 5, 9, 20, 0)
s = 49: (0, 9, 19, 3, 14, 83, 15, 17, 4, 7, 33, 0)
s = 50: (0, 7, 16, 3, 15, 76, 18, 19, 6, 11, 39, 0)
s = 51: (0, 6, 18, 2, 28, 63, 20, 16, 8, 10, 24, 0)
s = 52: (0, 9, 17, 3, 21, 94, 14, 17, 5, 9, 40, 0)
s = 53: (0, 11, 19, 4, 25, 34, 25, 17, 5, 6, 24, 0)
s = 54: (0, 7, 11, 3, 23, 52, 28, 17, 6, 8, 28, 0)
s = 55: (0, 12, 11, 3, 18, 45, 23, 17, 4, 6, 22, 0)
s = 56: (0, 7, 27, 2, 16, 116, 33, 13, 6, 7, 20, 0)
s = 57: (0, 9, 13, 3, 29, 66, 27, 21, 6, 5, 30, 0)
s = 58: (0, 9, 14, 2, 17, 57, 17, 30, 5, 8, 46, 0)
s = 59: (0, 10, 18, 4, 15, 48, 22, 18, 8, 7, 29, 0)
s = 60: (0, 9, 13, 4, 18, 43, 17, 16, 6, 7, 25, 0)
s = 61: (0, 10, 15, 2, 18, 51, 24, 11, 8, 9, 33, 0)
s = 62: (0, 8, 14, 2, 22, 43, 20, 22, 10, 10, 24, 0)
s = 63: (0, 9, 19, 3, 22, 43, 15, 11, 4, 8, 26, 0)
s = 64: (0, 7, 21, 2, 13, 43, 22, 9, 7, 7, 24, 0)
s = 65: (0, 10, 20, 3, 16, 71, 20, 14, 7, 5, 23, 0)
s = 66: (0, 13, 21, 2, 14, 46, 22, 13, 7, 7, 23, 0)
s = 67: (0, 9, 27, 2, 21, 88, 14, 15, 5, 8, 18, 0)
s = 68: (0, 7, 17, 3, 27, 35, 17, 20, 4, 9, 30, 0)
s = 69: (0, 14, 15, 2, 16, 71, 17, 15, 6, 13, 20, 0)
s = 70: (0, 6, 20, 4, 29, 34, 15, 18, 6, 8, 51, 0)
s = 71: (0, 12, 28, 2, 27, 55, 28, 11, 4, 5, 42, 0)
s = 72: (0, 12, 12, 3, 13, 50, 19, 16, 7, 7, 25, 0)
s = 73: (0, 12, 17, 2, 22, 63, 15, 21, 5, 14, 37, 0)
s = 74: (0, 8, 22, 2, 30, 50, 17, 14, 8, 7, 41, 0)
s = 75: (0, 11, 31, 2, 11, 47, 13, 20, 6, 11, 32, 0)
s = 76: (0, 7, 31, 3, 14, 60, 13, 26, 7, 12, 46, 0)
s = 77: (0, 9, 13, 3, 17, 73, 20, 17, 8, 6, 32, 0)
s = 78: (0, 15, 13, 2, 21, 55, 17, 15, 6, 10, 25, 0)
s = 79: (0, 13, 27, 2, 14, 31, 17, 15, 4, 11, 26, 0)
s = 80: (0, 9, 14, 2, 16, 53, 16, 12, 6, 8, 31, 0)
s = 81: (0, 11, 31, 3, 22, 62, 18, 13, 12, 7, 31, 0)
s = 82: (0, 11, 17, 4, 19, 40, 33, 19, 9, 8, 21, 0)
s = 83: (0, 12, 14, 3, 25, 77, 29, 20, 8, 16, 17, 0)
s = 84: (0, 7, 13, 3, 25, 38, 14, 22, 7, 7, 51, 0)
s = 85: (0, 6, 18, 2, 21, 77, 22, 20, 7, 8, 28, 0)
s = 86: (0, 10, 15, 4, 19, 72, 17, 21, 7, 11, 35, 0)
s = 87: (0, 14, 23, 2, 16, 69, 17, 15, 4, 8, 48, 0)
s = 88: (0, 7, 20, 2, 32, 83, 31, 14, 4, 6, 36, 0)
s = 89: (0, 10, 18, 3, 12, 41, 17, 21, 6, 6, 29, 0)
s = 90: (0, 10, 14, 3, 30, 35, 17, 11, 4, 9, 31, 0)
s = 91: (0, 11, 24, 4, 23, 41, 15, 21, 10, 8, 26, 0)
s = 92: (0, 9, 11, 3, 23, 34, 31, 14, 7, 10, 42, 0)
s = 93: (0, 6, 20, 4, 12, 91, 24, 25, 6, 11, 22, 0)
s = 94: (0, 8, 11, 3, 20, 50, 13, 17, 10, 6, 22, 0)
s = 95: (0, 8, 20, 2, 22, 73, 15, 15, 10, 9, 33, 0)
s = 96: (0, 8, 21, 3, 19, 45, 22, 17, 6, 9, 61, 0)
s = 97: (0, 8, 13, 3, 16, 79, 27, 19, 7, 6, 39, 0)
s = 98: (0, 13, 15, 2, 19, 66, 22, 20, 5, 12, 30, 0)
s = 99: (0, 6, 18, 2, 14, 31, 13, 23, 8, 10, 38, 0)
s = 100: (0, 9, 28, 2, 20, 55, 16, 16, 6, 6, 36, 0)
s = 101: (0, 10, 14, 3, 22, 30, 21, 16, 6, 9, 42, 0)
s = 102: (0, 12, 20, 3, 19, 59, 24, 15, 8, 10, 23, 0)
s = 103: (0, 11, 12, 2, 34, 80, 35, 19, 6, 9, 39, 0)
s = 104: (0, 11, 14, 3, 14, 35, 24, 12, 11, 7, 35, 0)
s = 105: (0, 9, 16, 2, 15, 55, 29, 16, 9, 8, 43, 0)
s = 106: (0, 7, 23, 4, 26, 53, 35, 15, 8, 9, 22, 0)
s = 107: (0, 8, 19, 3, 21, 47, 18, 22, 8, 8, 22, 0)
s = 108: (0, 10, 13, 3, 28, 83, 12, 12, 8, 10, 27, 0)
s = 109: (0, 7, 14, 3, 15, 52, 35, 20, 7, 9, 30, 0)
s = 110: (0, 7, 17, 2, 19, 49, 23, 17, 7, 12, 34, 0)
s = 111: (0, 11, 32, 4, 34, 46, 18, 21, 5, 10, 50, 0)
s = 112: (0, 8, 19, 3, 23, 74, 29, 17, 7, 8, 36, 0)
s = 113: (0, 7, 18, 2, 26, 32, 16, 14, 5, 9, 45, 0)
s = 114: (0, 10, 18, 2, 28, 68, 25, 24, 4, 5, 20, 0)
s = 115: (0, 13, 17, 3, 21, 62, 26, 20, 10, 10, 37, 0)
s = 116: (0, 9, 14, 2, 35, 49, 23, 13, 9, 6, 22, 0)
s = 117: (0, 8, 13, 2, 28, 50, 20, 10, 5, 11, 19, 0)
s = 118: (0, 9, 20, 2, 30, 42, 17, 9, 8, 7, 22, 0)
s = 119: (0, 6, 12, 3, 23, 70, 20, 11, 7, 7, 23, 0)
s = 120: (0, 10, 13, 2, 31, 40, 15, 13, 4, 7, 27, 0)
s = 121: (0, 8, 23, 2, 15, 44, 16, 19, 7, 7, 38, 0)
s = 122: (0, 11, 17, 2, 15, 57, 25, 20, 6, 11, 29, 0)
s = 123: (0, 12, 13, 2, 27, 44, 23, 12, 9, 9, 33, 0)
s = 124: (0, 11, 17, 3, 39, 47, 12, 15, 5, 5, 26, 0)
s = 125: (0, 8, 14, 3, 25, 71, 31, 14, 8, 7, 35, 0)
s = 126: (0, 8, 13, 2, 30, 36, 18, 14, 4, 9, 38, 0)
s = 127: (0, 10, 18, 2, 21, 69, 21, 20, 6, 9, 36, 0)
s = 128: (0, 10, 24, 3, 20, 52, 17, 10, 8, 5, 33, 0)
s = 129: (0, 5, 19, 2, 15, 79, 24, 23, 5, 8, 28, 0)
s = 130: (0, 7, 26, 3, 27, 54, 25, 10, 7, 6, 29, 0)
s = 131: (0, 8, 24, 2, 19, 61, 21, 16, 5, 13, 44, 0)
s = 132: (0, 7, 13, 3, 21, 56, 17, 22, 7, 8, 26, 0)
s = 133: (0, 9, 20, 3, 32, 49, 18, 26, 10, 8, 39, 0)
s = 134: (0, 10, 19, 3, 20, 58, 19, 24, 8, 7, 17, 0)
s = 135: (0, 12, 11, 2, 24, 80, 18, 17, 8, 11, 30, 0)
s = 136: (0, 9, 18, 2, 24, 36, 18, 23, 5, 8, 28, 0)
s = 137: (0, 9, 14, 3, 19, 47, 27, 10, 8, 8, 26, 0)
s = 138: (0, 5, 23, 2, 17, 61, 19, 13, 10, 9, 26, 0)
s = 139: (0, 13, 17, 2, 30, 82, 19, 13, 5, 7, 41, 0)
s = 140: (0, 7, 18, 3, 16, 39, 12, 18, 6, 9, 27, 0)
s = 141: (0, 6, 18, 2, 26, 32, 18, 14, 9, 8, 39, 0)
s = 142: (0, 10, 13, 2, 26, 51, 27, 17, 9, 6, 39, 0)
s = 143: (0, 5, 19, 3, 18, 43, 19, 12, 11, 9, 18, 0)
s = 144: (0, 11, 12, 2, 17, 51, 20, 21, 5, 9, 21, 0)
s = 145: (0, 9, 13, 4, 15, 44, 13, 10, 5, 6, 32, 0)
s = 146: (0, 6, 23, 4, 20, 64, 13, 14, 7, 11, 27, 0)
s = 147: (0, 13, 15, 3, 25, 46, 14, 17, 5, 8, 24, 0)
s = 148: (0, 6, 10, 3, 20, 62, 22, 16, 8, 7, 19, 0)
s = 149: (0, 9, 10, 2, 26, 69, 28, 17, 7, 9, 41, 0)
s = 150: (0, 11, 12, 3, 15, 42, 16, 15, 7, 9, 34, 0)
s = 151: (0, 10, 22, 3, 18, 36, 25, 23, 10, 6, 25, 0)
s = 152: (0, 8, 14, 2, 15, 99, 30, 20, 8, 7, 39, 0)
s = 153: (0, 13, 20, 3, 24, 56, 25, 17, 6, 9, 21, 0)
s = 154: (0, 7, 16, 2, 26, 33, 20, 19, 7, 8, 31, 0)
s = 155: (0, 5, 20, 3, 33, 42, 17, 13, 6, 8, 33, 0)
s = 156: (0, 7, 22, 2, 24, 83, 19, 16, 5, 10, 20, 0)
s = 157: (0, 10, 24, 2, 21, 38, 25, 9, 8, 14, 20, 0)
s = 158: (0, 10, 25, 3, 20, 43, 21, 21, 6, 9, 30, 0)
s = 159: (0, 8, 25, 2, 15, 83, 14, 21, 8, 5, 25, 0)
s = 160: (0, 12, 15, 3, 19, 55, 21, 21, 9, 8, 29, 0)
s = 161: (0, 11, 17, 3, 20, 66, 23, 16, 6, 7, 27, 0)
s = 162: (0, 12, 20, 4, 27, 61, 15, 24, 9, 7, 40, 0)
s = 163: (0, 7, 33, 2, 21, 42, 16, 16, 8, 6, 20, 0)
s = 164: (0, 6, 16, 2, 18, 29, 24, 16, 4, 5, 23, 0)
s = 165: (0, 11, 24, 2, 25, 69, 30, 17, 6, 10, 35, 0)
s = 166: (0, 12, 27, 2, 14, 34, 29, 22, 5, 7, 21, 0)
s = 167: (0, 6, 18, 2, 14, 35, 17, 15, 5, 9, 33, 0)
s = 168: (0, 9, 18, 2, 12, 54, 27, 12, 8, 12, 31, 0)
s = 169: (0, 7, 19, 3, 30, 67, 19, 14, 4, 6, 45, 0)
s = 170: (0, 8, 16, 2, 15, 94, 14, 15, 5, 15, 36, 0)
s = 171: (0, 8, 17, 3, 19, 40, 25, 25, 8, 9, 46, 0)
s = 172: (0, 6, 19, 3, 21, 67, 13, 11, 6, 6, 33, 0)
s = 173: (0, 14, 12, 2, 18, 62, 17, 14, 7, 8, 37, 0)
s = 174: (0, 10, 15, 4, 15, 71, 22, 17, 4, 9, 34, 0)
s = 175: (0, 10, 16, 4, 19, 33, 15, 17, 6, 9, 19, 0)
s = 176: (0, 10, 17, 2, 23, 66, 17, 17, 4, 8, 33, 0)
s = 177: (0, 11, 17, 2, 27, 41, 23, 15, 5, 10, 26, 0)
s = 178: (0, 8, 19, 3, 20, 44, 31, 20, 6, 8, 29, 0)
s = 179: (0, 8, 14, 3, 12, 68, 24, 12, 6, 9, 26, 0)
s = 180: (0, 8, 16, 2, 19, 60, 14, 18, 4, 6, 30, 0)
s = 181: (0, 10, 20, 3, 14, 31, 33, 17, 6, 8, 19, 0)
s = 182: (0, 6, 27, 4, 19, 50, 13, 19, 6, 10, 32, 0)
s = 183: (0, 9, 17, 4, 15, 89, 21, 26, 6, 6, 31, 0)
s = 184: (0, 15, 15, 4, 22, 50, 20, 19, 7, 6, 26, 0)
s = 185: (0, 14, 11, 2, 19, 49, 19, 21, 6, 13, 34, 0)
s = 186: (0, 13, 25, 2, 24, 46, 20, 14, 6, 9, 26, 0)
s = 187: (0, 12, 13, 2, 27, 50, 21, 18, 6, 9, 54, 0)
s = 188: (0, 9, 13, 2, 18, 53, 29, 14, 6, 11, 33, 0)
s = 189: (0, 6, 14, 3, 21, 54, 31, 19, 4, 8, 34, 0)
s = 190: (0, 7, 16, 2, 27, 52, 20, 17, 7, 10, 27, 0)
s = 191: (0, 12, 22, 3, 19, 46, 21, 21, 5, 7, 41, 0)
s = 192: (0, 12, 13, 2, 22, 45, 15, 11, 6, 10, 31, 0)
s = 193: (0, 8, 12, 3, 20, 95, 16, 15, 5, 14, 27, 0)
s = 194: (0, 15, 22, 2, 16, 41, 22, 14, 8, 6, 31, 0)
s = 195: (0, 8, 28, 2, 13, 70, 21, 15, 8, 9, 41, 0)
s = 196: (0, 8, 12, 3, 34, 46, 17, 18, 6, 7, 22, 0)
s = 197: (0, 11, 19, 2, 21, 59, 17, 14, 7, 12, 28, 0)
s = 198: (0, 7, 16, 2, 18, 50, 24, 12, 7, 6, 45, 0)
s = 199: (0, 9, 10, 2, 29, 61, 16, 14, 6, 7, 47, 0)
s = 200: (0, 8, 14, 3, 13, 68, 29, 14, 4, 9, 32, 0)
------------------------------------------------------------------------
RESOURCE k = 2
s = 1: (0, 12, 23, 6, 20, 90, 18, 32, 6, 9, 47, 0)
s = 2: (0, 17, 26, 6, 25, 57, 36, 27, 7, 5, 45, 0)
s = 3: (0, 18, 22, 8, 13, 61, 22, 33, 6, 6, 27, 0)
s = 4: (0, 17, 24, 10, 20, 52, 26, 20, 6, 5, 46, 0)
s = 5: (0, 20, 19, 8, 35, 78, 25, 21, 10, 5, 34, 0)
s = 6: (0, 23, 26, 8, 21, 37, 23, 35, 4, 5, 35, 0)
s = 7: (0, 14, 23, 4, 32, 44, 34, 28, 8, 8, 37, 0)
s = 8: (0, 10, 34, 6, 23, 64, 19, 32, 9, 7, 37, 0)
s = 9: (0, 17, 29, 7, 25, 58, 19, 31, 6, 4, 21, 0)
s = 10: (0, 20, 33, 6, 28, 45, 15, 19, 6, 5, 45, 0)
s = 11: (0, 18, 22, 9, 24, 53, 20, 22, 6, 6, 22, 0)
s = 12: (0, 15, 23, 9, 33, 76, 35, 42, 5, 4, 27, 0)
s = 13: (0, 19, 18, 7, 22, 85, 40, 23, 6, 9, 40, 0)
s = 14: (0, 11, 34, 5, 37, 87, 17, 21, 8, 6, 53, 0)
s = 15: (0, 14, 31, 6, 19, 63, 22, 34, 7, 4, 44, 0)
s = 16: (0, 10, 22, 6, 31, 82, 16, 27, 11, 5, 42, 0)
s = 17: (0, 10, 30, 9, 21, 70, 25, 29, 6, 5, 43, 0)
s = 18: (0, 15, 23, 4, 25, 99, 19, 19, 4, 5, 33, 0)
s = 19: (0, 16, 21, 7, 32, 67, 22, 21, 9, 6, 58, 0)
s = 20: (0, 15, 19, 6, 30, 38, 23, 23, 6, 6, 44, 0)
s = 21: (0, 16, 35, 7, 32, 63, 23, 36, 5, 4, 44, 0)
s = 22: (0, 13, 16, 5, 21, 55, 30, 45, 6, 5, 40, 0)
s = 23: (0, 20, 22, 5, 25, 51, 26, 30, 5, 4, 47, 0)
s = 24: (0, 12, 21, 8, 17, 61, 31, 33, 5, 8, 48, 0)
s = 25: (0, 14, 36, 7, 26, 47, 37, 45, 6, 5, 33, 0)
s = 26: (0, 13, 23, 7, 37, 38, 15, 33, 5, 4, 50, 0)
s = 27: (0, 20, 19, 5, 25, 60, 33, 41, 7, 5, 40, 0)
s = 28: (0, 12, 22, 5, 29, 56, 21, 17, 7, 5, 29, 0)
s = 29: (0, 22, 20, 9, 27, 105, 17, 40, 8, 6, 41, 0)
s = 30: (0, 15, 26, 6, 39, 62, 28, 21, 10, 4, 33, 0)
s = 31: (0, 11, 24, 5, 18, 51, 22, 37, 5, 4, 28, 0)
s = 32: (0, 23, 23, 4, 20, 70, 22, 40, 7, 7, 23, 0)
s = 33: (0, 12, 27, 8, 24, 63, 28, 42, 4, 4, 23, 0)
s = 34: (0, 12, 34, 5, 25, 56, 34, 51, 10, 4, 34, 0)
s = 35: (0, 18, 25, 7, 38, 41, 29, 52, 6, 7, 28, 0)
s = 36: (0, 14, 21, 8, 27, 77, 21, 24, 7, 5, 54, 0)
s = 37: (0, 16, 31, 5, 32, 40, 15, 33, 6, 4, 38, 0)
s = 38: (0, 14, 28, 5, 23, 60, 27, 51, 5, 6, 34, 0)
s = 39: (0, 13, 22, 9, 45, 59, 18, 28, 5, 5, 30, 0)
s = 40: (0, 14, 26, 7, 25, 79, 33, 27, 4, 5, 44, 0)
s = 41: (0, 9, 16, 6, 16, 48, 28, 41, 5, 7, 40, 0)
s = 42: (0, 15, 21, 6, 24, 80, 25, 19, 7, 5, 39, 0)
s = 43: (0, 13, 15, 6, 20, 40, 32, 42, 7, 3, 39, 0)
s = 44: (0, 16, 33, 7, 14, 68, 23, 24, 6, 5, 40, 0)
s = 45: (0, 16, 29, 5, 44, 74, 21, 33, 7, 6, 35, 0)
s = 46: (0, 21, 33, 7, 14, 41, 20, 34, 10, 7, 32, 0)
s = 47: (0, 17, 34, 6, 19, 96, 16, 26, 5, 6, 39, 0)
s = 48: (0, 15, 28, 8, 22, 99, 32, 47, 5, 6, 24, 0)
s = 49: (0, 15, 25, 8, 16, 93, 17, 33, 4, 5, 40, 0)
s = 50: (0, 12, 21, 7, 17, 85, 20, 37, 6, 7, 47, 0)
s = 51: (0, 10, 23, 4, 32, 70, 22, 31, 8, 6, 28, 0)
s = 52: (0, 15, 23, 8, 23, 106, 16, 33, 5, 6, 48, 0)
s = 53: (0, 19, 26, 10, 28, 38, 29, 34, 5, 4, 29, 0)
s = 54: (0, 11, 14, 8, 26, 58, 32, 34, 6, 5, 34, 0)
s = 55: (0, 19, 14, 8, 20, 51, 27, 33, 4, 4, 26, 0)
s = 56: (0, 12, 36, 6, 18, 130, 37, 26, 6, 4, 23, 0)
s = 57: (0, 15, 18, 7, 33, 74, 31, 41, 6, 4, 36, 0)
s = 58: (0, 14, 18, 5, 19, 64, 20, 59, 5, 5, 55, 0)
s = 59: (0, 16, 23, 10, 17, 53, 25, 35, 8, 5, 34, 0)
s = 60: (0, 15, 18, 11, 21, 49, 19, 32, 6, 5, 30, 0)
s = 61: (0, 16, 20, 6, 20, 58, 28, 21, 8, 6, 40, 0)
s = 62: (0, 14, 18, 5, 25, 48, 23, 43, 10, 7, 28, 0)
s = 63: (0, 15, 25, 7, 25, 48, 17, 22, 4, 5, 31, 0)
s = 64: (0, 12, 28, 6, 15, 48, 25, 18, 7, 4, 28, 0)
s = 65: (0, 16, 26, 7, 18, 80, 22, 27, 7, 3, 28, 0)
s = 66: (0, 21, 28, 5, 16, 52, 25, 25, 7, 5, 28, 0)
s = 67: (0, 14, 36, 6, 23, 99, 16, 30, 5, 5, 22, 0)
s = 68: (0, 11, 23, 7, 30, 39, 19, 39, 4, 6, 36, 0)
s = 69: (0, 22, 20, 5, 19, 80, 20, 30, 6, 8, 23, 0)
s = 70: (0, 10, 27, 10, 33, 38, 18, 36, 6, 5, 61, 0)
s = 71: (0, 19, 37, 6, 31, 62, 32, 22, 4, 4, 51, 0)
s = 72: (0, 20, 16, 8, 15, 56, 21, 32, 7, 5, 29, 0)
s = 73: (0, 20, 22, 5, 25, 71, 17, 42, 5, 9, 44, 0)
s = 74: (0, 13, 29, 6, 35, 56, 20, 28, 8, 5, 50, 0)
s = 75: (0, 17, 41, 6, 13, 53, 14, 40, 6, 7, 38, 0)
s = 76: (0, 12, 42, 8, 16, 67, 15, 52, 7, 8, 55, 0)
s = 77: (0, 15, 17, 8, 19, 82, 23, 34, 8, 4, 39, 0)
s = 78: (0, 25, 17, 5, 23, 62, 19, 30, 6, 7, 30, 0)
s = 79: (0, 21, 36, 6, 16, 35, 20, 29, 4, 7, 31, 0)
s = 80: (0, 15, 19, 6, 19, 59, 18, 24, 6, 5, 38, 0)
s = 81: (0, 18, 42, 7, 25, 70, 20, 26, 12, 5, 37, 0)
s = 82: (0, 18, 23, 10, 21, 45, 38, 38, 9, 5, 25, 0)
s = 83: (0, 19, 18, 9, 29, 87, 33, 40, 8, 10, 20, 0)
s = 84: (0, 11, 18, 9, 28, 42, 16, 44, 7, 5, 61, 0)
s = 85: (0, 9, 23, 5, 24, 87, 26, 40, 7, 5, 34, 0)
s = 86: (0, 16, 20, 10, 21, 81, 19, 42, 7, 7, 41, 0)
s = 87: (0, 24, 31, 5, 18, 77, 19, 29, 4, 5, 57, 0)
s = 88: (0, 12, 27, 4, 36, 93, 36, 28, 4, 4, 43, 0)
s = 89: (0, 16, 24, 7, 13, 46, 19, 42, 6, 4, 35, 0)
s = 90: (0, 16, 19, 9, 34, 40, 20, 22, 4, 6, 37, 0)
s = 91: (0, 19, 32, 10, 27, 46, 17, 41, 10, 5, 31, 0)
s = 92: (0, 15, 14, 8, 26, 38, 35, 28, 7, 7, 50, 0)
s = 93: (0, 10, 27, 10, 14, 102, 28, 49, 6, 7, 27, 0)
s = 94: (0, 13, 15, 7, 23, 56, 15, 33, 10, 4, 26, 0)
s = 95: (0, 13, 27, 5, 25, 82, 17, 29, 10, 6, 40, 0)
s = 96: (0, 13, 28, 8, 22, 50, 25, 34, 6, 6, 73, 0)
s = 97: (0, 12, 17, 7, 18, 89, 31, 38, 7, 4, 47, 0)
s = 98: (0, 21, 20, 6, 22, 74, 25, 39, 5, 8, 36, 0)
s = 99: (0, 10, 24, 6, 16, 35, 15, 46, 8, 6, 46, 0)
s = 100: (0, 15, 37, 6, 23, 62, 18, 32, 6, 4, 44, 0)
s = 101: (0, 17, 19, 7, 25, 34, 23, 31, 6, 6, 50, 0)
s = 102: (0, 19, 26, 7, 21, 67, 28, 30, 8, 7, 27, 0)
s = 103: (0, 17, 16, 4, 39, 90, 40, 37, 6, 6, 47, 0)
s = 104: (0, 17, 18, 8, 16, 39, 27, 24, 11, 5, 41, 0)
s = 105: (0, 15, 21, 6, 17, 62, 33, 31, 9, 5, 51, 0)
s = 106: (0, 12, 31, 10, 30, 59, 40, 30, 8, 6, 26, 0)
s = 107: (0, 13, 25, 7, 24, 53, 20, 44, 8, 5, 26, 0)
s = 108: (0, 17, 17, 9, 32, 93, 14, 24, 8, 7, 32, 0)
s = 109: (0, 12, 18, 8, 17, 58, 40, 39, 7, 6, 35, 0)
s = 110: (0, 12, 22, 6, 22, 55, 26, 34, 7, 8, 41, 0)
s = 111: (0, 17, 43, 10, 39, 51, 21, 41, 5, 7, 60, 0)
s = 112: (0, 14, 26, 9, 27, 83, 33, 33, 7, 5, 43, 0)
s = 113: (0, 11, 24, 4, 29, 36, 18, 27, 5, 6, 54, 0)
s = 114: (0, 17, 24, 5, 32, 76, 28, 48, 4, 3, 24, 0)
s = 115: (0, 22, 23, 7, 24, 70, 30, 40, 10, 6, 45, 0)
s = 116: (0, 15, 19, 4, 40, 55, 26, 26, 9, 4, 26, 0)
s = 117: (0, 12, 17, 6, 31, 56, 23, 19, 5, 7, 23, 0)
s = 118: (0, 14, 27, 6, 35, 48, 19, 18, 8, 5, 27, 0)
s = 119: (0, 10, 16, 7, 26, 79, 22, 21, 7, 4, 28, 0)
s = 120: (0, 16, 17, 4, 35, 45, 17, 25, 4, 4, 32, 0)
s = 121: (0, 14, 31, 4, 17, 50, 19, 38, 7, 4, 45, 0)
s = 122: (0, 18, 22, 6, 17, 64, 28, 39, 6, 7, 35, 0)
s = 123: (0, 19, 17, 5, 30, 49, 26, 23, 9, 6, 39, 0)
s = 124: (0, 19, 22, 8, 44, 53, 13, 30, 5, 4, 31, 0)
s = 125: (0, 14, 18, 8, 28, 79, 35, 27, 8, 4, 42, 0)
s = 126: (0, 13, 17, 5, 34, 40, 20, 27, 4, 6, 45, 0)
s = 127: (0, 17, 24, 5, 24, 78, 24, 40, 6, 6, 43, 0)
s = 128: (0, 16, 31, 7, 23, 58, 19, 20, 8, 4, 40, 0)
s = 129: (0, 9, 25, 4, 17, 88, 27, 45, 5, 5, 34, 0)
s = 130: (0, 12, 35, 7, 31, 61, 28, 20, 7, 4, 35, 0)
s = 131: (0, 12, 32, 6, 22, 68, 24, 32, 5, 8, 53, 0)
s = 132: (0, 11, 17, 9, 24, 63, 20, 44, 7, 5, 31, 0)
s = 133: (0, 15, 27, 7, 37, 55, 20, 52, 10, 5, 46, 0)
s = 134: (0, 16, 25, 8, 22, 65, 21, 48, 8, 4, 21, 0)
s = 135: (0, 20, 15, 6, 28, 90, 21, 34, 8, 7, 35, 0)
s = 136: (0, 15, 24, 6, 27, 41, 20, 45, 5, 5, 33, 0)
s = 137: (0, 14, 19, 7, 22, 53, 31, 19, 8, 5, 31, 0)
s = 138: (0, 9, 30, 6, 19, 69, 22, 26, 10, 6, 31, 0)
s = 139: (0, 21, 22, 6, 35, 93, 21, 26, 5, 4, 49, 0)
s = 140: (0, 12, 24, 9, 18, 44, 14, 36, 6, 6, 32, 0)
s = 141: (0, 9, 24, 6, 30, 36, 21, 27, 9, 5, 47, 0)
s = 142: (0, 16, 18, 6, 29, 57, 30, 34, 9, 4, 47, 0)
s = 143: (0, 8, 25, 9, 21, 49, 22, 24, 11, 6, 21, 0)
s = 144: (0, 19, 15, 5, 19, 57, 23, 42, 5, 6, 25, 0)
s = 145: (0, 14, 17, 11, 17, 50, 15, 20, 5, 4, 39, 0)
s = 146: (0, 10, 30, 10, 23, 72, 15, 27, 7, 7, 32, 0)
s = 147: (0, 21, 20, 9, 28, 51, 16, 33, 5, 5, 29, 0)
s = 148: (0, 9, 13, 8, 23, 69, 25, 32, 8, 5, 22, 0)
s = 149: (0, 14, 14, 6, 29, 78, 32, 33, 7, 6, 49, 0)
s = 150: (0, 18, 16, 7, 17, 47, 18, 29, 7, 6, 41, 0)
s = 151: (0, 17, 29, 8, 20, 41, 29, 45, 10, 4, 30, 0)
s = 152: (0, 13, 18, 5, 17, 112, 34, 39, 8, 4, 46, 0)
s = 153: (0, 21, 26, 7, 27, 63, 29, 33, 6, 6, 26, 0)
s = 154: (0, 11, 22, 5, 29, 37, 23, 37, 7, 5, 37, 0)
s = 155: (0, 9, 27, 8, 38, 47, 19, 26, 6, 5, 39, 0)
s = 156: (0, 12, 29, 6, 28, 93, 22, 32, 5, 7, 24, 0)
s = 157: (0, 16, 32, 5, 24, 43, 28, 18, 8, 9, 24, 0)
s = 158: (0, 16, 34, 7, 23, 48, 24, 42, 6, 6, 36, 0)
s = 159: (0, 13, 34, 5, 17, 93, 16, 42, 8, 4, 30, 0)
s = 160: (0, 19, 20, 7, 22, 62, 24, 41, 9, 5, 35, 0)
s = 161: (0, 17, 22, 7, 23, 74, 27, 32, 6, 5, 33, 0)
s = 162: (0, 19, 26, 10, 30, 68, 17, 47, 9, 5, 48, 0)
s = 163: (0, 12, 44, 5, 24, 47, 19, 32, 8, 4, 24, 0)
s = 164: (0, 9, 22, 4, 21, 33, 27, 31, 4, 3, 27, 0)
s = 165: (0, 18, 32, 5, 28, 77, 35, 34, 6, 6, 42, 0)
s = 166: (0, 20, 35, 5, 15, 38, 33, 44, 5, 4, 25, 0)
s = 167: (0, 9, 24, 6, 16, 40, 19, 29, 5, 6, 39, 0)
s = 168: (0, 14, 23, 5, 14, 61, 31, 23, 8, 8, 37, 0)
s = 169: (0, 12, 25, 7, 34, 75, 22, 28, 4, 4, 54, 0)
s = 170: (0, 12, 21, 4, 18, 106, 16, 29, 5, 10, 43, 0)
s = 171: (0, 13, 22, 7, 22, 45, 29, 50, 8, 6, 55, 0)
s = 172: (0, 10, 25, 8, 24, 76, 14, 21, 6, 4, 39, 0)
s = 173: (0, 23, 15, 5, 20, 69, 19, 27, 7, 5, 45, 0)
s = 174: (0, 17, 20, 10, 17, 80, 26, 34, 4, 6, 41, 0)
s = 175: (0, 17, 21, 10, 22, 37, 17, 33, 6, 6, 22, 0)
s = 176: (0, 17, 22, 5, 26, 75, 19, 34, 4, 5, 39, 0)
s = 177: (0, 18, 22, 6, 31, 46, 27, 29, 5, 7, 31, 0)
s = 178: (0, 14, 26, 8, 23, 50, 35, 39, 6, 5, 35, 0)
s = 179: (0, 13, 19, 8, 14, 76, 28, 24, 6, 6, 31, 0)
s = 180: (0, 13, 21, 6, 22, 67, 16, 36, 4, 4, 36, 0)
s = 181: (0, 16, 27, 7, 16, 35, 37, 33, 6, 5, 23, 0)
s = 182: (0, 10, 36, 12, 22, 56, 15, 38, 6, 6, 39, 0)
s = 183: (0, 15, 23, 10, 17, 100, 24, 52, 6, 4, 38, 0)
s = 184: (0, 25, 19, 10, 25, 56, 22, 38, 7, 4, 31, 0)
s = 185: (0, 23, 15, 5, 22, 55, 22, 42, 6, 9, 40, 0)
s = 186: (0, 21, 33, 5, 27, 52, 23, 27, 6, 6, 31, 0)
s = 187: (0, 19, 18, 6, 31, 57, 24, 36, 6, 6, 65, 0)
s = 188: (0, 14, 17, 6, 20, 60, 33, 28, 6, 7, 39, 0)
s = 189: (0, 10, 19, 8, 24, 60, 35, 37, 4, 5, 40, 0)
s = 190: (0, 11, 21, 5, 31, 58, 22, 33, 7, 6, 32, 0)
s = 191: (0, 20, 30, 7, 22, 52, 24, 42, 5, 4, 49, 0)
s = 192: (0, 19, 17, 5, 25, 50, 17, 22, 6, 7, 37, 0)
s = 193: (0, 14, 16, 8, 23, 107, 18, 29, 5, 9, 32, 0)
s = 194: (0, 25, 29, 5, 18, 46, 25, 28, 8, 4, 37, 0)
s = 195: (0, 13, 37, 4, 15, 79, 24, 29, 8, 6, 49, 0)
s = 196: (0, 13, 16, 9, 39, 52, 20, 35, 6, 5, 26, 0)
s = 197: (0, 18, 25, 6, 24, 67, 19, 28, 7, 8, 33, 0)
s = 198: (0, 11, 21, 5, 21, 56, 27, 23, 7, 4, 53, 0)
s = 199: (0, 15, 14, 4, 34, 69, 18, 28, 6, 4, 56, 0)
s = 200: (0, 14, 18, 7, 15, 77, 33, 28, 4, 6, 38, 0)
------------------------------------------------------------------------
RESOURCE k = 3
s = 1: (0, 15, 18, 7, 10, 100, 16, 24, 6, 17, 78, 0)
s = 2: (0, 20, 19, 7, 13, 63, 31, 20, 7, 10, 75, 0)
s = 3: (0, 21, 17, 9, 7, 68, 19, 25, 6, 12, 45, 0)
s = 4: (0, 21, 18, 12, 10, 57, 22, 15, 6, 10, 77, 0)
s = 5: (0, 24, 14, 10, 18, 86, 22, 16, 10, 9, 57, 0)
s = 6: (0, 28, 19, 9, 11, 41, 20, 27, 4, 10, 59, 0)
s = 7: (0, 17, 18, 5, 16, 48, 30, 21, 8, 15, 62, 0)
s = 8: (0, 12, 26, 7, 12, 71, 17, 24, 9, 14, 61, 0)
s = 9: (0, 20, 22, 8, 13, 64, 16, 24, 6, 7, 34, 0)
s = 10: (0, 24, 25, 7, 14, 50, 13, 14, 6, 10, 74, 0)
s = 11: (0, 21, 17, 10, 12, 59, 18, 16, 6, 11, 37, 0)
s = 12: (0, 18, 17, 10, 17, 84, 31, 31, 5, 7, 45, 0)
s = 13: (0, 23, 13, 8, 11, 95, 35, 18, 6, 18, 66, 0)
s = 14: (0, 13, 26, 6, 19, 96, 15, 16, 8, 12, 88, 0)
s = 15: (0, 17, 23, 7, 10, 70, 20, 25, 7, 8, 72, 0)
s = 16: (0, 12, 17, 6, 16, 91, 14, 20, 11, 10, 70, 0)
s = 17: (0, 12, 22, 10, 11, 77, 22, 22, 6, 10, 71, 0)
s = 18: (0, 18, 18, 5, 13, 109, 17, 15, 4, 10, 55, 0)
s = 19: (0, 20, 16, 8, 16, 74, 19, 16, 9, 11, 96, 0)
s = 20: (0, 17, 15, 7, 15, 43, 20, 17, 6, 11, 73, 0)
s = 21: (0, 20, 26, 9, 16, 70, 20, 27, 5, 8, 73, 0)
s = 22: (0, 16, 12, 6, 11, 61, 26, 34, 6, 9, 66, 0)
s = 23: (0, 24, 17, 6, 13, 57, 23, 22, 5, 8, 79, 0)
s = 24: (0, 14, 16, 9, 9, 67, 27, 25, 5, 15, 79, 0)
s = 25: (0, 16, 27, 8, 13, 52, 32, 34, 6, 10, 55, 0)
s = 26: (0, 15, 17, 8, 19, 42, 13, 25, 5, 8, 83, 0)
s = 27: (0, 24, 15, 6, 13, 66, 29, 31, 7, 9, 66, 0)
s = 28: (0, 14, 17, 6, 15, 63, 19, 13, 7, 10, 48, 0)
s = 29: (0, 26, 15, 10, 14, 116, 15, 30, 8, 11, 68, 0)
s = 30: (0, 18, 20, 7, 20, 69, 25, 16, 10, 7, 54, 0)
s = 31: (0, 13, 18, 6, 9, 57, 20, 28, 5, 8, 47, 0)
s = 32: (0, 27, 17, 5, 10, 78, 19, 30, 7, 13, 39, 0)
s = 33: (0, 14, 20, 9, 12, 70, 24, 32, 4, 7, 39, 0)
s = 34: (0, 14, 26, 6, 13, 63, 30, 38, 10, 7, 56, 0)
s = 35: (0, 21, 19, 8, 19, 46, 25, 39, 6, 14, 47, 0)
s = 36: (0, 16, 16, 9, 14, 85, 19, 18, 7, 10, 90, 0)
s = 37: (0, 19, 23, 6, 16, 45, 13, 25, 6, 7, 64, 0)
s = 38: (0, 17, 21, 6, 12, 66, 24, 38, 5, 12, 56, 0)
s = 39: (0, 16, 17, 10, 23, 65, 16, 21, 5, 9, 50, 0)
s = 40: (0, 17, 20, 8, 13, 87, 29, 20, 4, 9, 73, 0)
s = 41: (0, 11, 12, 7, 8, 53, 24, 31, 5, 14, 67, 0)
s = 42: (0, 18, 16, 7, 12, 89, 22, 14, 7, 10, 64, 0)
s = 43: (0, 16, 11, 6, 10, 44, 28, 31, 7, 6, 64, 0)
s = 44: (0, 19, 25, 8, 7, 75, 20, 18, 6, 10, 67, 0)
s = 45: (0, 19, 22, 5, 22, 82, 18, 25, 7, 12, 58, 0)
s = 46: (0, 25, 25, 8, 7, 45, 18, 25, 10, 14, 52, 0)
s = 47: (0, 20, 26, 6, 10, 107, 14, 20, 5, 11, 65, 0)
s = 48: (0, 17, 21, 9, 11, 109, 28, 35, 5, 12, 40, 0)
s = 49: (0, 18, 19, 9, 8, 103, 15, 25, 4, 9, 66, 0)
s = 50: (0, 14, 16, 9, 9, 95, 18, 28, 6, 13, 78, 0)
s = 51: (0, 12, 18, 5, 16, 78, 20, 23, 8, 12, 47, 0)
s = 52: (0, 18, 17, 9, 12, 117, 14, 25, 5, 11, 80, 0)
s = 53: (0, 22, 19, 11, 14, 43, 25, 25, 5, 7, 48, 0)
s = 54: (0, 13, 11, 9, 13, 65, 28, 26, 6, 9, 56, 0)
s = 55: (0, 23, 11, 9, 10, 56, 23, 25, 4, 8, 43, 0)
s = 56: (0, 14, 27, 7, 9, 144, 33, 20, 6, 8, 39, 0)
s = 57: (0, 18, 13, 8, 17, 82, 27, 31, 6, 7, 59, 0)
s = 58: (0, 17, 14, 6, 10, 72, 17, 44, 5, 10, 91, 0)
s = 59: (0, 20, 18, 11, 9, 59, 22, 26, 8, 9, 57, 0)
s = 60: (0, 18, 13, 12, 11, 54, 17, 24, 6, 9, 50, 0)
s = 61: (0, 19, 15, 7, 10, 64, 24, 16, 8, 11, 66, 0)
s = 62: (0, 16, 14, 6, 13, 53, 20, 32, 10, 13, 47, 0)
s = 63: (0, 18, 19, 8, 13, 53, 15, 17, 4, 10, 52, 0)
s = 64: (0, 14, 21, 7, 8, 53, 22, 14, 7, 8, 47, 0)
s = 65: (0, 19, 20, 8, 9, 89, 20, 20, 7, 6, 46, 0)
s = 66: (0, 25, 21, 6, 8, 58, 22, 19, 7, 9, 46, 0)
s = 67: (0, 17, 27, 6, 12, 110, 14, 22, 5, 10, 36, 0)
s = 68: (0, 14, 17, 8, 15, 44, 17, 29, 4, 12, 60, 0)
s = 69: (0, 27, 15, 5, 10, 89, 17, 22, 6, 16, 39, 0)
s = 70: (0, 11, 20, 11, 17, 42, 15, 27, 6, 9, 102, 0)
s = 71: (0, 23, 28, 6, 16, 69, 28, 16, 4, 7, 84, 0)
s = 72: (0, 24, 12, 9, 8, 62, 19, 24, 7, 9, 49, 0)
s = 73: (0, 24, 17, 5, 13, 79, 15, 32, 5, 17, 73, 0)
s = 74: (0, 15, 22, 7, 18, 62, 17, 21, 8, 9, 82, 0)
s = 75: (0, 21, 31, 7, 7, 59, 13, 30, 6, 14, 63, 0)
s = 76: (0, 14, 31, 9, 8, 75, 13, 39, 7, 15, 92, 0)
s = 77: (0, 18, 13, 9, 10, 91, 20, 25, 8, 8, 64, 0)
s = 78: (0, 30, 13, 6, 12, 68, 17, 23, 6, 13, 49, 0)
s = 79: (0, 25, 27, 7, 8, 39, 17, 22, 4, 13, 51, 0)
s = 80: (0, 18, 14, 7, 10, 66, 16, 18, 6, 10, 62, 0)
s = 81: (0, 21, 31, 9, 13, 77, 18, 20, 12, 9, 61, 0)
s = 82: (0, 21, 17, 12, 11, 50, 33, 29, 9, 10, 41, 0)
s = 83: (0, 23, 14, 10, 15, 96, 29, 30, 8, 20, 33, 0)
s = 84: (0, 13, 13, 10, 14, 47, 14, 33, 7, 9, 102, 0)
s = 85: (0, 11, 18, 5, 12, 96, 22, 30, 7, 10, 56, 0)
s = 86: (0, 19, 15, 11, 11, 90, 17, 32, 7, 13, 69, 0)
s = 87: (0, 28, 23, 6, 9, 86, 17, 22, 4, 9, 95, 0)
s = 88: (0, 14, 20, 5, 18, 103, 31, 21, 4, 8, 72, 0)
s = 89: (0, 19, 18, 8, 7, 52, 17, 31, 6, 7, 58, 0)
s = 90: (0, 20, 14, 10, 17, 44, 17, 17, 4, 11, 61, 0)
s = 91: (0, 22, 24, 11, 14, 51, 15, 31, 10, 10, 51, 0)
s = 92: (0, 17, 11, 9, 13, 42, 31, 21, 7, 13, 83, 0)
s = 93: (0, 12, 20, 12, 7, 114, 24, 37, 6, 13, 44, 0)
s = 94: (0, 15, 11, 8, 12, 62, 13, 25, 10, 8, 43, 0)
s = 95: (0, 15, 20, 6, 13, 91, 15, 22, 10, 11, 66, 0)
s = 96: (0, 15, 21, 9, 11, 56, 22, 26, 6, 11, 122, 0)
s = 97: (0, 15, 13, 8, 9, 99, 27, 28, 7, 7, 77, 0)
s = 98: (0, 25, 15, 7, 11, 82, 22, 30, 5, 15, 59, 0)
s = 99: (0, 12, 18, 7, 8, 39, 13, 35, 8, 12, 76, 0)
s = 100: (0, 18, 28, 6, 12, 69, 16, 24, 6, 8, 72, 0)
s = 101: (0, 20, 14, 8, 13, 38, 21, 23, 6, 11, 83, 0)
s = 102: (0, 23, 20, 8, 11, 74, 24, 23, 8, 13, 45, 0)
s = 103: (0, 21, 12, 4, 20, 100, 35, 28, 6, 11, 78, 0)
s = 104: (0, 21, 14, 9, 8, 43, 24, 18, 11, 9, 69, 0)
s = 105: (0, 18, 16, 7, 9, 69, 29, 23, 9, 10, 85, 0)
s = 106: (0, 14, 23, 12, 15, 66, 35, 22, 8, 11, 43, 0)
s = 107: (0, 15, 19, 8, 12, 59, 18, 33, 8, 10, 43, 0)
s = 108: (0, 20, 13, 11, 16, 103, 12, 18, 8, 13, 53, 0)
s = 109: (0, 14, 14, 9, 9, 65, 35, 29, 7, 11, 59, 0)
s = 110: (0, 14, 17, 6, 11, 61, 23, 25, 7, 15, 68, 0)
s = 111: (0, 21, 32, 12, 20, 57, 18, 31, 5, 13, 100, 0)
s = 112: (0, 16, 19, 11, 14, 92, 29, 25, 7, 10, 71, 0)
s = 113: (0, 13, 18, 5, 15, 40, 16, 20, 5, 12, 89, 0)
s = 114: (0, 20, 18, 5, 16, 85, 25, 36, 4, 6, 40, 0)
s = 115: (0, 26, 17, 9, 12, 78, 26, 30, 10, 12, 74, 0)
s = 116: (0, 18, 14, 4, 20, 61, 23, 20, 9, 7, 44, 0)
s = 117: (0, 15, 13, 6, 16, 62, 20, 14, 5, 14, 38, 0)
s = 118: (0, 17, 20, 7, 18, 53, 17, 13, 8, 9, 44, 0)
s = 119: (0, 12, 12, 8, 13, 87, 20, 16, 7, 8, 46, 0)
s = 120: (0, 19, 13, 4, 18, 50, 15, 19, 4, 8, 53, 0)
s = 121: (0, 16, 23, 5, 9, 55, 16, 29, 7, 8, 75, 0)
s = 122: (0, 21, 17, 7, 9, 71, 25, 30, 6, 14, 57, 0)
s = 123: (0, 23, 13, 6, 15, 54, 23, 18, 9, 11, 65, 0)
s = 124: (0, 22, 17, 9, 22, 59, 12, 23, 5, 7, 51, 0)
s = 125: (0, 16, 14, 9, 14, 88, 31, 21, 8, 8, 69, 0)
s = 126: (0, 15, 13, 5, 17, 45, 18, 20, 4, 11, 75, 0)
s = 127: (0, 20, 18, 6, 12, 86, 21, 30, 6, 11, 71, 0)
s = 128: (0, 20, 24, 8, 12, 65, 17, 15, 8, 7, 66, 0)
s = 129: (0, 10, 19, 5, 9, 98, 24, 34, 5, 10, 56, 0)
s = 130: (0, 14, 26, 8, 16, 68, 25, 15, 7, 7, 57, 0)
s = 131: (0, 15, 24, 7, 11, 76, 21, 24, 5, 16, 88, 0)
s = 132: (0, 13, 13, 10, 12, 70, 17, 33, 7, 10, 52, 0)
s = 133: (0, 17, 20, 8, 19, 61, 18, 39, 10, 9, 77, 0)
s = 134: (0, 19, 19, 9, 11, 72, 19, 36, 8, 8, 34, 0)
s = 135: (0, 24, 11, 7, 14, 100, 18, 26, 8, 13, 59, 0)
s = 136: (0, 17, 18, 7, 14, 45, 18, 34, 5, 10, 55, 0)
s = 137: (0, 17, 14, 9, 11, 59, 27, 14, 8, 10, 52, 0)
s = 138: (0, 10, 23, 7, 10, 76, 19, 20, 10, 11, 52, 0)
s = 139: (0, 25, 17, 7, 18, 103, 19, 20, 5, 8, 81, 0)
s = 140: (0, 14, 18, 11, 9, 49, 12, 27, 6, 12, 53, 0)
s = 141: (0, 11, 18, 7, 15, 40, 18, 20, 9, 10, 78, 0)
s = 142: (0, 19, 13, 7, 15, 64, 27, 26, 9, 7, 77, 0)
s = 143: (0, 10, 19, 10, 11, 54, 19, 18, 11, 11, 35, 0)
s = 144: (0, 22, 12, 5, 10, 63, 20, 31, 5, 12, 42, 0)
s = 145: (0, 17, 13, 13, 9, 55, 13, 15, 5, 7, 64, 0)
s = 146: (0, 12, 23, 12, 12, 80, 13, 20, 7, 13, 53, 0)
s = 147: (0, 25, 15, 11, 14, 57, 14, 25, 5, 9, 48, 0)
s = 148: (0, 11, 10, 9, 12, 77, 22, 24, 8, 9, 37, 0)
s = 149: (0, 17, 10, 7, 15, 87, 28, 25, 7, 11, 81, 0)
s = 150: (0, 22, 12, 8, 9, 53, 16, 22, 7, 12, 68, 0)
s = 151: (0, 20, 22, 10, 10, 45, 25, 34, 10, 8, 50, 0)
s = 152: (0, 16, 14, 5, 9, 124, 30, 29, 8, 8, 77, 0)
s = 153: (0, 25, 20, 8, 14, 69, 25, 25, 6, 11, 42, 0)
s = 154: (0, 14, 16, 5, 15, 41, 20, 28, 7, 9, 61, 0)
s = 155: (0, 10, 20, 10, 19, 52, 17, 20, 6, 10, 65, 0)
s = 156: (0, 14, 22, 7, 14, 103, 19, 24, 5, 13, 39, 0)
s = 157: (0, 20, 24, 6, 12, 48, 25, 14, 8, 17, 40, 0)
s = 158: (0, 19, 25, 8, 12, 53, 21, 31, 6, 11, 60, 0)
s = 159: (0, 15, 25, 6, 9, 104, 14, 32, 8, 7, 50, 0)
s = 160: (0, 23, 15, 8, 11, 69, 21, 31, 9, 10, 58, 0)
s = 161: (0, 21, 17, 8, 12, 82, 23, 24, 6, 9, 54, 0)
s = 162: (0, 23, 20, 11, 15, 76, 15, 35, 9, 9, 80, 0)
s = 163: (0, 14, 33, 6, 12, 52, 16, 24, 8, 7, 40, 0)
s = 164: (0, 11, 16, 5, 11, 36, 24, 24, 4, 6, 45, 0)
s = 165: (0, 21, 24, 5, 14, 86, 30, 25, 6, 12, 70, 0)
s = 166: (0, 24, 27, 6, 8, 42, 29, 33, 5, 8, 41, 0)
s = 167: (0, 11, 18, 7, 8, 44, 17, 22, 5, 11, 65, 0)
s = 168: (0, 17, 18, 6, 7, 68, 27, 17, 8, 15, 61, 0)
s = 169: (0, 14, 19, 8, 17, 83, 19, 21, 4, 8, 90, 0)
s = 170: (0, 15, 16, 5, 9, 118, 14, 22, 5, 19, 71, 0)
s = 171: (0, 16, 17, 8, 11, 50, 25, 38, 8, 11, 91, 0)
s = 172: (0, 12, 19, 9, 12, 84, 13, 16, 6, 7, 65, 0)
s = 173: (0, 27, 12, 5, 10, 77, 17, 20, 7, 10, 74, 0)
s = 174: (0, 20, 15, 12, 9, 89, 22, 25, 4, 12, 67, 0)
s = 175: (0, 20, 16, 11, 11, 41, 15, 25, 6, 11, 37, 0)
s = 176: (0, 20, 17, 6, 13, 83, 17, 25, 4, 9, 65, 0)
s = 177: (0, 21, 17, 7, 16, 51, 23, 22, 5, 13, 52, 0)
s = 178: (0, 16, 19, 9, 12, 55, 31, 30, 6, 10, 57, 0)
s = 179: (0, 15, 14, 9, 7, 85, 24, 18, 6, 11, 51, 0)
s = 180: (0, 16, 16, 7, 11, 75, 14, 27, 4, 7, 60, 0)
s = 181: (0, 20, 20, 8, 8, 39, 33, 25, 6, 9, 38, 0)
s = 182: (0, 12, 27, 13, 11, 62, 13, 28, 6, 12, 64, 0)
s = 183: (0, 17, 17, 11, 9, 111, 21, 39, 6, 7, 62, 0)
s = 184: (0, 29, 15, 11, 13, 62, 20, 28, 7, 8, 52, 0)
s = 185: (0, 27, 11, 5, 11, 62, 19, 32, 6, 17, 67, 0)
s = 186: (0, 25, 25, 5, 14, 58, 20, 21, 6, 11, 51, 0)
s = 187: (0, 23, 13, 7, 16, 63, 21, 27, 6, 11, 108, 0)
s = 188: (0, 17, 13, 7, 10, 66, 29, 21, 6, 14, 65, 0)
s = 189: (0, 12, 14, 9, 12, 67, 31, 28, 4, 10, 67, 0)
s = 190: (0, 13, 16, 6, 16, 65, 20, 25, 7, 12, 53, 0)
s = 191: (0, 24, 22, 8, 11, 58, 21, 32, 5, 8, 81, 0)
s = 192: (0, 23, 13, 6, 13, 56, 15, 17, 6, 13, 61, 0)
s = 193: (0, 16, 12, 9, 12, 119, 16, 22, 5, 17, 53, 0)
s = 194: (0, 30, 22, 6, 9, 51, 22, 21, 8, 7, 62, 0)
s = 195: (0, 15, 28, 5, 8, 87, 21, 22, 8, 12, 82, 0)
s = 196: (0, 15, 12, 10, 20, 57, 17, 26, 6, 9, 43, 0)
s = 197: (0, 21, 19, 6, 12, 74, 17, 21, 7, 15, 55, 0)
s = 198: (0, 14, 16, 6, 11, 62, 24, 17, 7, 8, 89, 0)
s = 199: (0, 17, 10, 5, 17, 76, 16, 21, 6, 8, 93, 0)
s = 200: (0, 16, 14, 8, 8, 85, 29, 21, 4, 11, 63, 0)
************************************************************************
ES/LS-VALUES:
jobnr.   ES(i)    LS(i)
------------------------------------------------------------------------
  0        0        0
  1        0       62
  2        0       29
  3        0       39
  4        5       35
  5       10       41
  6       24       62
  7       10       48
  8       10       67
  9       29       67
 10       24       56
 11       36       69
************************************************************************
BIG-M-VALUES:
M1 = 84, M2 = 390
************************************************************************
